NAME : ftv64Preorder.1514.tour
COMMENT : Length = 1514
COMMENT : Found by LKH [Keld Helsgaun] Sun Apr 19 19:25:41 2020
TYPE : TOUR
DIMENSION : 65
TOUR_SECTION
1
16
15
48
8
37
9
41
42
10
43
44
45
12
46
13
36
21
22
49
50
24
23
60
26
64
30
56
32
63
53
52
25
31
54
34
65
39
3
5
40
6
7
58
59
35
57
33
29
51
55
28
27
20
47
11
61
14
17
18
19
62
2
38
4
-1
EOF
